
Gurobi 7.0.2 (win64) logging started 06/24/20 01:15:35

Read LP format model from file C:\George\Professor\Pesquisa\Orientacoes em Pos-graduacao\2019 MSC PPGCC Guilherme Figueroa\Fanjuls Solver\Results\I_150_20_S_1-9_1_MTZ_KB.lp
Reading time = 2.89 seconds
: 28840 rows, 456151 columns, 1863020 nonzeros
Optimize a model with 28840 rows, 456151 columns and 1863020 nonzeros
Variable types: 3151 continuous, 453000 integer (453000 binary)
Coefficient statistics:
  Matrix range     [1e+00, 2e+02]
  Objective range  [1e+00, 1e+00]
  Bounds range     [1e+00, 1e+00]
  RHS range        [1e+00, 1e+02]
Presolve removed 0 rows and 0 columns (presolve time = 6s) ...
Presolve time: 5.59s
Presolved: 28840 rows, 456151 columns, 1863020 nonzeros
Variable types: 150 continuous, 456001 integer (456000 binary)
Found heuristic solution: objective 8421.0000000
Found heuristic solution: objective 8411.0000000

Root simplex log...

Iteration    Objective       Primal Inf.    Dual Inf.      Time
       0    0.0000000e+00   3.000000e+02   0.000000e+00     13s
    3014    6.1517889e-05   1.654794e+03   0.000000e+00     15s
    4952    1.0171097e-04   2.699016e+03   0.000000e+00     20s
    6890    1.3825404e-04   1.712945e+03   0.000000e+00     25s
    8845    1.7813436e-04   2.862455e+03   0.000000e+00     30s
   11049    3.4303500e-04   2.937648e+03   0.000000e+00     35s
   13290    6.8122414e-04   5.170132e+03   0.000000e+00     40s
   14876    8.0840730e-04   6.415148e+03   0.000000e+00     45s
   20201    1.3106956e-03   5.836400e+03   0.000000e+00     51s
   23050    1.6282565e-03   3.356624e+03   0.000000e+00     55s
   29622    2.7260235e-03   6.909181e+03   0.000000e+00     60s
   33043    3.2684520e-03   8.715123e+03   0.000000e+00     65s
   41294    8.3507396e-03   3.002020e+04   0.000000e+00     70s
   51661    4.6750634e+01   2.140587e+03   0.000000e+00     75s
   55889    5.3325830e+01   4.537174e+02   0.000000e+00     80s
   59161    5.8294553e+01   2.207705e+02   0.000000e+00     86s
   60415    5.8969095e+01   1.203809e+03   0.000000e+00     90s
   61536    5.9237714e+01   5.290191e+02   0.000000e+00     96s
   62242    5.9464142e+01   1.562498e+03   0.000000e+00    101s
   63078    5.9682446e+01   5.531479e+01   0.000000e+00    105s
   63799    5.9758482e+01   4.473765e+01   0.000000e+00    111s
   64277    5.9837152e+01   2.712402e+01   0.000000e+00    115s
   64819    5.9871667e+01   2.028564e+01   0.000000e+00    121s
   65547    5.9874052e+01   0.000000e+00   0.000000e+00    126s
   65583    5.9872389e+01   0.000000e+00   0.000000e+00    127s

Root relaxation: objective 5.987239e+01, 65583 iterations, 113.37 seconds
Total elapsed time = 130.44s

    Nodes    |    Current Node    |     Objective Bounds      |     Work
 Expl Unexpl |  Obj  Depth IntInf | Incumbent    BestBd   Gap | It/Node Time

     0     0   59.87239    0  293 8411.00000   59.87239  99.3%     -  130s
H    0     0                      69.0000000   59.87239  13.2%     -  286s
     0     0   59.93747    0  341   69.00000   59.93747  13.1%     -  332s
     0     0   59.93747    0  296   69.00000   59.93747  13.1%     -  436s
     0     0   60.00000    0  415   69.00000   60.00000  13.0%     -  570s
     0     0   60.00000    0  425   69.00000   60.00000  13.0%     -  574s
     0     0   60.00000    0  481   69.00000   60.00000  13.0%     -  622s
     0     0   60.00000    0  545   69.00000   60.00000  13.0%     -  657s
     0     0   60.00733    0  415   69.00000   60.00733  13.0%     -  682s
     0     0   60.01106    0  427   69.00000   60.01106  13.0%     -  683s
     0     0   60.03681    0  417   69.00000   60.03681  13.0%     -  689s
     0     0   60.03752    0  435   69.00000   60.03752  13.0%     -  690s
     0     0   60.04106    0  439   69.00000   60.04106  13.0%     -  696s
     0     0   60.04308    0  420   69.00000   60.04308  13.0%     -  698s
     0     0   60.05415    0  466   69.00000   60.05415  13.0%     -  704s
     0     0   60.05593    0  450   69.00000   60.05593  13.0%     -  705s
     0     0   60.06987    0  482   69.00000   60.06987  12.9%     -  712s
     0     0   60.06987    0  482   69.00000   60.06987  12.9%     -  712s
     0     0   60.07313    0  501   69.00000   60.07313  12.9%     -  717s
     0     0   60.07339    0  495   69.00000   60.07339  12.9%     -  718s
     0     0   60.07497    0  501   69.00000   60.07497  12.9%     -  722s
     0     0   60.07497    0  501   69.00000   60.07497  12.9%     -  722s
     0     0   60.07695    0  495   69.00000   60.07695  12.9%     -  725s
     0     0   60.07720    0  509   69.00000   60.07720  12.9%     -  726s
     0     0   60.07720    0  509   69.00000   60.07720  12.9%     -  728s
     0     0   60.07927    0  523   69.00000   60.07927  12.9%     -  730s
     0     0   60.08469    0  479   69.00000   60.08469  12.9%     -  734s
     0     0   60.08554    0  484   69.00000   60.08554  12.9%     -  735s
     0     0   60.08960    0  486   69.00000   60.08960  12.9%     -  738s
     0     0   60.08960    0  486   69.00000   60.08960  12.9%     -  739s
     0     0   60.09429    0  495   69.00000   60.09429  12.9%     -  742s
     0     0   60.09429    0  495   69.00000   60.09429  12.9%     -  743s
     0     0   60.10218    0  504   69.00000   60.10218  12.9%     -  746s
     0     0   60.10274    0  500   69.00000   60.10274  12.9%     -  747s
     0     0   60.10323    0  492   69.00000   60.10323  12.9%     -  750s
     0     0   60.10328    0  496   69.00000   60.10328  12.9%     -  750s
     0     0   60.10331    0  491   69.00000   60.10331  12.9%     -  754s
     0     0   60.10331    0  491   69.00000   60.10331  12.9%     -  754s
     0     0   60.10331    0  491   69.00000   60.10331  12.9%     -  757s
     0     0   60.10617    0  491   69.00000   60.10617  12.9%     -  759s
     0     0   60.10617    0  482   69.00000   60.10617  12.9%     -  764s
     0     0   60.10650    0  504   69.00000   60.10650  12.9%     -  765s
     0     0   60.10650    0  507   69.00000   60.10650  12.9%     -  769s
     0     0   60.10650    0  507   69.00000   60.10650  12.9%     -  770s
     0     0   60.10650    0  507   69.00000   60.10650  12.9%     -  774s
     0     0   60.10650    0  508   69.00000   60.10650  12.9%     -  775s
     0     0   60.10650    0  504   69.00000   60.10650  12.9%     -  780s
     0     0   60.10650    0  504   69.00000   60.10650  12.9%     -  780s
     0     0   60.10650    0  504   69.00000   60.10650  12.9%     -  786s
     0     0   61.00000    0  207   69.00000   61.00000  11.6%     - 1383s
     0     0   61.00000    0  207   69.00000   61.00000  11.6%     - 1462s
     0     2   61.00000    0  207   69.00000   61.00000  11.6%     - 1505s
     1     4   61.00000    1  357   69.00000   61.00000  11.6%  9677 1574s
     2     5   61.00000    2  405   69.00000   61.00000  11.6%  5479 1626s
     3     5   61.00000    3  425   69.00000   61.00000  11.6%  4207 1673s
     4     6   61.00000    3  398   69.00000   61.00000  11.6%  3513 1708s
     5     7   61.00000    4  420   69.00000   61.00000  11.6%  3173 1742s
     6     8   61.00000    4  400   69.00000   61.00000  11.6%  2693 1750s
     7     9   61.00000    5  426   69.00000   61.00000  11.6%  2439 1775s
     8    10   61.00000    6  404   69.00000   61.00000  11.6%  2163 1784s
     9    11   61.00000    7  425   69.00000   61.00000  11.6%  2113 1800s

Cutting planes:
  Learned: 10
  Clique: 1
  MIR: 48

Explored 10 nodes (207312 simplex iterations) in 1800.40 seconds
Thread count was 1 (of 12 available processors)

Solution count 3: 69 8411 8421 
Pool objective bound 61

Time limit reached
Best objective 6.900000000000e+01, best bound 6.100000000000e+01, gap 11.5942%
